NAME 
ROWS
 N  OBJ
 L  R0      
 L  R1      
 E  R2      
 E  R3      
 E  R4      
 E  R5      
 E  R6      
 E  R7      
 E  R8      
 E  R9      
 E  R10     
 E  R11     
COLUMNS
    MARKER    'MARKER'                 'INTORG'
    I0(6)     OBJ       -117
    I0(6)     R0        157
    I0(6)     R1        -52
    I0(6)     R2        8
    I0(6)     R3        -1
    I0(6)     R5        15
    I0(6)     R11       1
    I1(7)     OBJ       -15
    I1(7)     R0        -170
    I1(7)     R1        41
    I1(7)     R2        14
    I1(7)     R3        13
    I1(7)     R4        11
    I1(7)     R5        17
    I1(7)     R11       1
    I2(7)     OBJ       31
    I2(7)     R0        -83
    I2(7)     R1        5
    I2(7)     R2        18
    I2(7)     R3        4
    I2(7)     R4        10
    I2(7)     R5        13
    I2(7)     R11       1
    I3(6)     OBJ       -200
    I3(6)     R0        -77
    I3(6)     R1        -12
    I3(6)     R2        8
    I3(6)     R4        18
    I3(6)     R5        14
    I3(6)     R11       1
    MARKER    'MARKER'                 'INTEND'
    C4(8)     OBJ       8
    C4(8)     R0        -3
    C4(8)     R1        -6
    C4(8)     R2        7
    C4(8)     R3        8
    C4(8)     R4        10
    C4(8)     R7        -1
    C4(8)     R9        6
    C4(8)     R10       15
    C5(5)     OBJ       3
    C5(5)     R0        -6
    C5(5)     R1        -7
    C5(5)     R3        13
    C5(5)     R7        14
    C5(5)     R8        15
    C6(8)     OBJ       -2
    C6(8)     R0        4
    C6(8)     R1        1
    C6(8)     R2        7
    C6(8)     R3        6
    C6(8)     R5        10
    C6(8)     R6        13
    C6(8)     R9        12
    C6(8)     R10       14
    C7(8)     OBJ       -9
    C7(8)     R0        -6
    C7(8)     R1        -5
    C7(8)     R3        9
    C7(8)     R4        18
    C7(8)     R6        1
    C7(8)     R7        3
    C7(8)     R8        10
    C7(8)     R10       1
    C8(7)     OBJ       9
    C8(7)     R0        -5
    C8(7)     R1        -1
    C8(7)     R2        12
    C8(7)     R3        4
    C8(7)     R4        13
    C8(7)     R7        6
    C8(7)     R8        11
    C9(8)     OBJ       8
    C9(8)     R0        -3
    C9(8)     R1        -10
    C9(8)     R2        1
    C9(8)     R3        13
    C9(8)     R5        18
    C9(8)     R6        15
    C9(8)     R8        19
    C9(8)     R10       6
    C10(1)    R2        1
    C11(1)    R3        1
    C12(1)    R4        1
    C13(1)    R5        1
    C14(1)    R6        1
    C15(1)    R7        1
    C16(1)    R8        1
    C17(1)    R9        1
    C18(1)    R10       1
    C19(1)    R11       1
RHS
    RHS1      R0        -76
    RHS1      R1        -2.1472222222222221e+01
    RHS1      R2        92
    RHS1      R3        94
    RHS1      R4        68
    RHS1      R5        71
    RHS1      R6        83
    RHS1      R7        79
    RHS1      R8        85
    RHS1      R9        53
    RHS1      R10       77
    RHS1      R11       1
BOUNDS
 UP BND1      I0(6)     2
 UP BND1      I1(7)     2
 UP BND1      I2(7)     2
 UP BND1      I3(6)     2
ENDATA
